Set parameter TSPort to value 51199
Set parameter TokenServer to value "open-license1.lanl.gov"
Set parameter TimeLimit to value 8192
Set parameter Threads to value 1
Gurobi Optimizer version 10.0.3 build v10.0.3rc0 (linux64)

CPU model: Intel(R) Xeon(R) CPU E5-2695 v4 @ 2.10GHz, instruction set [SSE2|AVX|AVX2]
Thread count: 36 physical cores, 72 logical processors, using up to 1 threads

Optimize a model with 0 rows, 4046 columns and 0 nonzeros
Model fingerprint: 0x79501edc
Model has 18831 quadratic objective terms
Variable types: 0 continuous, 4046 integer (4046 binary)
Coefficient statistics:
  Matrix range     [0e+00, 0e+00]
  Objective range  [2e+00, 3e+01]
  QObjective range [8e+00, 8e+00]
  Bounds range     [1e+00, 1e+00]
  RHS range        [0e+00, 0e+00]
Found heuristic solution: objective 0.0000000
Found heuristic solution: objective -6898.000000
Found heuristic solution: objective -25006.00000
Found heuristic solution: objective -25078.00000
Presolve removed 0 rows and 1 columns
Presolve time: 0.49s
Presolved: 18830 rows, 22875 columns, 56490 nonzeros
Variable types: 0 continuous, 22875 integer (22875 binary)

Root relaxation: objective -3.523100e+04, 5485 iterations, 0.08 seconds (0.04 work units)

    Nodes    |    Current Node    |     Objective Bounds      |     Work
 Expl Unexpl |  Obj  Depth IntInf | Incumbent    BestBd   Gap | It/Node Time

     0     0 -35231.000    0 4045 -25078.000 -35231.000  40.5%     -    1s
     0     0 -33315.500    0 4939 -25078.000 -33315.500  32.8%     -    1s
     0     0 -32677.000    0 5319 -25078.000 -32677.000  30.3%     -    2s
     0     0 -32664.000    0 5330 -25078.000 -32664.000  30.2%     -    2s
     0     0 -32179.083    0 5666 -25078.000 -32179.083  28.3%     -    3s
     0     0 -32179.083    0 5603 -25078.000 -32179.083  28.3%     -    4s
     0     2 -32179.083    0 5594 -25078.000 -32179.083  28.3%     -    5s
   163   165 -31415.583   82 6289 -25078.000 -32168.083  28.3%   129   10s
   348   350 -30665.333  175 6768 -25078.000 -32168.083  28.3%   108   15s
   404   406 -30434.333  203 6916 -25078.000 -32168.083  28.3%   102   22s
   502   504 -30049.333  252 7116 -25078.000 -32168.083  28.3%  99.0   25s
   685   687 -29344.500  343 7519 -25078.000 -32168.083  28.3%  92.1   30s
   783   785 -28978.500  392 7585 -25078.000 -32168.083  28.3%  90.1   35s
   864   866 -28684.500  433 7594 -25078.000 -32168.083  28.3%  88.4   40s
  1081  1083 -27930.500  541 7711 -25078.000 -32168.083  28.3%  83.8   45s
H 1196  1196                    -25080.00000 -32168.083  28.3%  82.1   47s
H 1248  1248                    -25088.00000 -32168.083  28.2%  80.9   48s
H 1300  1300                    -25092.00000 -32168.083  28.2%  79.6   49s
  1312  1314 -27205.000  657 7873 -25092.000 -32168.083  28.2%  79.5   50s
H 1326  1326                    -25100.00000 -32168.083  28.2%  79.1   50s
H 1430  1430                    -25110.00000 -32168.083  28.1%  77.4   52s
H 1482  1482                    -25120.00000 -32168.083  28.1%  76.5   53s
H 1508  1508                    -25122.00000 -32168.083  28.0%  76.1   54s
H 1534  1534                    -25134.00000 -32168.083  28.0%  75.4   54s
  1539  1541 -26643.000  771 7820 -25134.000 -32168.083  28.0%  75.3   55s
H 1560  1560                    -25152.00000 -32168.083  27.9%  75.1   55s
H 1586  1586                    -25186.00000 -32168.083  27.7%  74.4   56s
H 1612  1612                    -25196.00000 -32168.083  27.7%  74.3   56s
H 1638  1638                    -25218.00000 -32168.083  27.6%  74.2   57s
H 1664  1664                    -25236.00000 -32168.083  27.5%  74.0   58s
H 1690  1690                    -25252.00000 -32168.083  27.4%  73.6   58s
H 1716  1716                    -25286.00000 -32168.083  27.2%  73.5   59s
  1731  1733 -26173.500  869 7677 -25286.000 -32168.083  27.2%  73.3   60s
H 1742  1742                    -25310.00000 -32168.083  27.1%  73.2   60s
H 1768  1768                    -25342.00000 -32168.083  26.9%  72.9   61s
H 1794  1794                    -25370.00000 -32168.083  26.8%  72.6   62s
H 1820  1820                    -25394.00000 -32168.083  26.7%  72.1   63s
H 1846  1846                    -25424.00000 -32168.083  26.5%  71.8   63s
H 1872  1872                    -25466.00000 -32168.083  26.3%  71.5   64s
  1879  1881 -25853.000  944 7571 -25466.000 -32168.083  26.3%  71.4   65s
H 1898  1898                    -25482.00000 -32168.083  26.2%  71.2   66s
H 1924  1924                    -25506.00000 -32168.083  26.1%  71.1   68s
  1944  1946 -25693.000  977 7476 -25506.000 -32168.083  26.1%  70.9   71s
H 1950  1950                    -25514.00000 -32168.083  26.1%  70.8   72s
  2085  2042     cutoff 1030      -25514.000 -32168.083  26.1%  68.7   75s
  2148  2035 -27606.000  588 9415 -25514.000 -32167.583  26.1%  67.7   80s
  2153  2038 -28157.000  510 6286 -25514.000 -31067.500  21.8%  67.5   85s
  2155  2040 -28768.500  422 7035 -25514.000 -30519.597  19.6%  67.5   91s
  2161  2044 -25837.000  948 7220 -25514.000 -30478.696  19.5%  67.3   95s
  2163  2045 -29332.500  345 7637 -25514.000 -29967.136  17.5%  67.2  118s
  2164  2046 -26847.000  721 8243 -25514.000 -29792.198  16.8%  67.2  151s
  2165  2046 -26223.500  860 8754 -25514.000 -29738.341  16.6%  67.2  179s
  2166  2047 -25956.000  916 8913 -25514.000 -29724.223  16.5%  67.1  193s
  2167  2048 -29720.295   46 8931 -25514.000 -29720.295  16.5%  67.1  200s
  2168  2048 -28370.500  477 9038 -25514.000 -29718.486  16.5%  67.1  205s
  2174  2052 -28152.000  511 9228 -25514.000 -29717.217  16.5%  66.9  210s
  2175  2053 -26274.500  852 9525 -25514.000 -29351.429  15.0%  66.8  322s
  2176  2054 -27614.000  587 9931 -25514.000 -29260.438  14.7%  66.8  407s
  2177  2054 -26087.000  888 10344 -25514.000 -29202.012  14.5%  66.8  492s
  2178  2055 -26717.000  749 10594 -25514.000 -29183.134  14.4%  66.8  547s
  2179  2056 -26981.000  695 10820 -25514.000 -29177.624  14.4%  66.7  561s
  2180  2056 -29174.137  211 11005 -25514.000 -29174.137  14.3%  66.7  574s
  2181  2057 -28857.500  409 11130 -25514.000 -29172.526  14.3%  66.7  583s
  2182  2058 -26932.000  705 11135 -25514.000 -29171.757  14.3%  66.6  588s
  2183  2058 -29171.266  218 11188 -25514.000 -29171.266  14.3%  66.6  592s
  2184  2059 -26042.000  898 11260 -25514.000 -29170.920  14.3%  66.6  596s
  2186  2060 -29170.762  152 11301 -25514.000 -29170.762  14.3%  66.5  601s
  2189  2062 -28881.009  202 11479 -25514.000 -28881.009  13.2%  66.4  825s
  2190  2063 -27034.000  685 12013 -25514.000 -28816.384  12.9%  66.4  996s
  2191  2064 -26893.000  714 12332 -25514.000 -28768.709  12.8%  66.4 1148s
  2192  2064 -26469.000  812 12694 -25514.000 -28748.969  12.7%  66.3 1220s
  2193  2065 -26797.000  734 12869 -25514.000 -28740.379  12.6%  66.3 1269s
  2194  2066 -28672.500  435 13030 -25514.000 -28738.123  12.6%  66.3 1293s
  2195  2066 -28215.000  502 13174 -25514.000 -28736.926  12.6%  66.2 1307s
  2196  2067 -28736.576  104 13240 -25514.000 -28736.576  12.6%  66.2 1315s
  2197  2068 -28485.500  461 13297 -25514.000 -28736.353  12.6%  66.2 1321s
  2199  2069 -28736.238    7 13338 -25514.000 -28736.238  12.6%  66.1 1327s
  2201  2070 -26479.000  811 13298 -25514.000 -28736.223  12.6%  66.1 1331s
  2202  2071 -28492.847   81 13737 -25514.000 -28492.847  11.7%  66.0 1698s
  2203  2072 -28350.500  480 14127 -25514.000 -28445.858  11.5%  66.0 1936s
  2204  2072 -27790.500  562 14291 -25514.000 -28409.292  11.3%  66.0 2143s
  2205  2073 -28393.155  292 14605 -25514.000 -28393.155  11.3%  65.9 2259s
  2206  2074 -27235.000  652 14867 -25514.000 -28386.511  11.3%  65.9 2328s
  2207  2074 -28384.105  376 14931 -25514.000 -28384.105  11.2%  65.9 2365s
  2208  2075 -26469.000  812 15093 -25514.000 -28383.277  11.2%  65.8 2384s
  2209  2076 -28382.748  345 15066 -25514.000 -28382.748  11.2%  65.8 2397s
  2210  2076 -28382.387  180 15128 -25514.000 -28382.387  11.2%  65.8 2408s
  2211  2077 -28382.188  362 15207 -25514.000 -28382.188  11.2%  65.8 2416s
  2212  2078 -25569.500 1015 15229 -25514.000 -28382.119  11.2%  65.7 2420s
  2215  2080 -28382.066  403 15310 -25514.000 -28382.066  11.2%  65.6 2425s
  2216  2080 -28215.000  502 15321 -25514.000 -28382.065  11.2%  65.6 2430s
  2217  2081 -27710.000  574 15780 -25514.000 -28188.812  10.5%  65.6 2941s
  2218  2082 -28160.027  360 16129 -25514.000 -28160.027  10.4%  65.5 3201s
  2219  2082 -28127.363  159 16389 -25514.000 -28127.363  10.2%  65.5 3467s
  2220  2083 -28118.334  110 16714 -25514.000 -28118.334  10.2%  65.5 3599s
  2221  2084 -28115.723  212 16875 -25514.000 -28115.723  10.2%  65.5 3658s
  2222  2084 -26733.000  746 16961 -25514.000 -28114.518  10.2%  65.4 3693s
  2223  2085 -26490.000  809 17026 -25514.000 -28113.901  10.2%  65.4 3714s
  2224  2086 -28113.659  213 17117 -25514.000 -28113.659  10.2%  65.4 3726s
  2225  2086 -28113.559  267 17184 -25514.000 -28113.559  10.2%  65.3 3733s
  2226  2087 -27749.000  568 17198 -25514.000 -28113.539  10.2%  65.3 3736s
  2228  2088 -28113.528  361 17223 -25514.000 -28113.528  10.2%  65.3 3741s
  2229  2089 -27944.500  540 16903 -25514.000 -28001.167  9.75%  65.2 4227s
  2230  2090 -27980.645  394 17465 -25514.000 -27980.645  9.67%  65.2 4481s
  2231  2090 -26864.000  719 17520 -25514.000 -27975.490  9.65%  65.2 4614s
  2232  2091 -27973.595  530 17675 -25514.000 -27973.595  9.64%  65.1 4669s
  2233  2092 -27973.020  325 17800 -25514.000 -27973.020  9.64%  65.1 4693s
  2234  2092 -27972.794  355 17755 -25514.000 -27972.794  9.64%  65.1 4715s
  2235  2093 -27972.740  133 17928 -25514.000 -27972.740  9.64%  65.1 4722s
  2236  2094 -27972.719  417 17943 -25514.000 -27972.719  9.64%  65.0 4727s
  2237  2094 -27811.500  558 17948 -25514.000 -27972.689  9.64%  65.0 4731s
  2239  2096 -26759.000  741 17915 -25514.000 -27972.674  9.64%  64.9 4737s
  2240  2096 -27880.385  478 17960 -25514.000 -27880.385  9.27%  64.9 5283s
  2241  2097 -27862.918  304 18179 -25514.000 -27862.918  9.21%  64.9 5562s
  2242  2098 -27859.225  156 18438 -25514.000 -27859.225  9.19%  64.8 5665s
  2243  2098 -27857.720  117 18430 -25514.000 -27857.720  9.19%  64.8 5741s
  2244  2099 -26632.000  774 18572 -25514.000 -27857.326  9.18%  64.8 5761s
  2245  2100 -26707.000  751 18540 -25514.000 -27857.190  9.18%  64.8 5773s
  2246  2100 -27857.139  185 18528 -25514.000 -27857.139  9.18%  64.7 5779s
  2247  2101 -27857.110  401 18586 -25514.000 -27857.110  9.18%  64.7 5786s
  2249  2102 -27857.103   65 18598 -25514.000 -27857.103  9.18%  64.6 5792s
  2250  2103 -27779.638  531 18657 -25514.000 -27779.638  8.88%  64.6 6330s
  2251  2104 -27017.000  688 18852 -25514.000 -27766.641  8.83%  64.6 6605s
  2252  2104 -26134.000  879 18913 -25514.000 -27763.295  8.82%  64.6 6732s
  2253  2105 -27762.474  510 18987 -25514.000 -27762.474  8.81%  64.5 6772s
  2254  2106 -26913.000  710 19076 -25514.000 -27762.230  8.81%  64.5 6792s
  2255  2106 -27762.117  422 19102 -25514.000 -27762.117  8.81%  64.5 6808s
  2256  2107 -27762.082  193 19121 -25514.000 -27762.082  8.81%  64.4 6816s
  2257  2108 -27762.067  280 19151 -25514.000 -27762.067  8.81%  64.4 6821s
  2258  2108 -26402.000  825 19139 -25514.000 -27762.064  8.81%  64.4 6826s
  2259  2109 -26819.000  727 19077 -25514.000 -27714.078  8.62%  64.4 7324s
  2260  2110 -26797.000  734 19210 -25514.000 -27704.066  8.58%  64.3 7607s
  2261  2110 -25837.000  948 19294 -25514.000 -27702.186  8.58%  64.3 7705s
  2262  2111 -27701.669  546 19373 -25514.000 -27701.669  8.57%  64.3 7738s
  2263  2112 -27701.435  345 19422 -25514.000 -27701.435  8.57%  64.2 7758s
  2264  2112 -26847.000  721 19421 -25514.000 -27701.371  8.57%  64.2 7769s
  2265  2113 -26223.500  860 19465 -25514.000 -27701.352  8.57%  64.2 7775s
  2267  2114 -27701.340   46 19482 -25514.000 -27701.340  8.57%  64.1 7785s

Cutting planes:
  Gomory: 187
  MIR: 764
  Flow cover: 6664
  Zero half: 2438
  Mod-K: 120
  RLT: 820
  BQP: 1194

Explored 2267 nodes (3479873 simplex iterations) in 8192.00 seconds (13184.53 work units)
Thread count was 1 (of 72 available processors)

Solution count 10: -25514 -25506 -25482 ... -25286

Time limit reached
Best objective -2.551400000000e+04, best bound -2.770000000000e+04, gap 8.5678%

User-callback calls 24437, time in user-callback 0.11 sec

BQP_SOLUTION, 4046, 18831, -9114.000000, 8192.001713, -1, 1, -1, 1, 1, 1, 1, -1, 1, -1, 1, -1, -1, 1, 1, -1, 1, 1, 1, -1, 1, 1, 1, -1, 1, -1, -1, -1, 1, 1, 1, 1, 1, -1, 1, 1, 1, 1, -1, -1, -1, -1, 1, -1, 1, -1, -1, 1, 1, 1, -1, -1, 1, -1, -1, 1, 1, 1, 1, -1, 1, -1, 1, -1, -1, 1, -1, -1, 1, 1, 1, 1, 1, 1, 1, 1, -1, 1, 1, -1, 1, 1, -1, 1, 1, -1, 1, 1, 1, -1, -1, 1, -1, -1, 1, 1, 1, 1, -1, 1, 1, 1, -1, -1, 1, -1, 1, -1, 1, 1, 1, -1, 1, 1, 1, -1, -1, 1, 1, -1, 1, 1, 1, 1, -1, 1, 1, 1, -1, -1, 1, -1, 1, 1, 1, 1, 1, -1, -1, 1, 1, -1, 1, 1, -1, 1, -1, 1, 1, 1, -1, -1, 1, 1, -1, -1, 1, -1, -1, 1, 1, 1, 1, -1, 1, 1, 1, -1, 1, 1, 1, -1, 1, 1, 1, 1, -1, 1, -1, -1, -1, -1, 1, 1, 1, 1, 1, 1, 1, -1, -1, 1, -1, -1, 1, -1, 1, -1, -1, -1, 1, 1, 1, -1, -1, 1, -1, 1, 1, -1, 1, -1, 1, -1, 1, -1, -1, 1, -1, -1, 1, 1, -1, 1, -1, 1, -1, 1, 1, -1, 1, -1, -1, -1, 1, 1, -1, -1, 1, -1, 1, 1, -1, -1, -1, -1, 1, 1, -1, 1, -1, 1, -1, 1, 1, -1, 1, -1, -1, 1, 1, 1, -1, -1, -1, 1, 1, 1, 1, -1, 1, -1, 1, 1, -1, 1, -1, 1, -1, 1, 1, -1, -1, -1, -1, 1, 1, 1, -1, 1, -1, 1, 1, 1, -1, -1, 1, -1, 1, 1, 1, -1, -1, 1, -1, -1, 1, 1, -1, -1, -1, 1, 1, -1, 1, 1, 1, -1, 1, 1, -1, -1, -1, 1, 1, 1, -1, 1, -1, 1, -1, 1, 1, -1, 1, -1, 1, 1, 1, 1, -1, -1, 1, -1, 1, 1, -1, -1, -1, 1, 1, 1, -1, 1, -1, 1, -1, 1, 1, -1, -1, -1, 1, 1, 1, -1, -1, 1, 1, 1, -1, 1, -1, 1, -1, -1, 1, 1, 1, -1, -1, 1, -1, 1, 1, -1, -1, -1, -1, 1, 1, 1, 1, 1, 1, -1, -1, 1, -1, 1, -1, -1, 1, 1, -1, 1, -1, -1, 1, -1, 1, -1, 1, -1, 1, 1, 1, 1, 1, -1, -1, -1, 1, -1, 1, -1, -1, 1, 1, -1, -1, -1, 1, 1, -1, 1, -1, 1, 1, 1, 1, 1, -1, -1, -1, 1, -1, -1, 1, -1, -1, 1, 1, 1, 1, 1, 1, 1, -1, 1, -1, 1, -1, 1, -1, -1, 1, 1, 1, 1, -1, 1, -1, 1, -1, -1, 1, -1, -1, 1, 1, -1, -1, -1, 1, -1, 1, 1, 1, 1, -1, 1, -1, -1, 1, -1, 1, 1, -1, 1, -1, -1, 1, -1, 1, -1, -1, -1, 1, -1, 1, -1, 1, -1, -1, 1, 1, -1, 1, 1, 1, -1, -1, -1, -1, 1, -1, 1, 1, -1, 1, 1, -1, -1, 1, -1, -1, -1, -1, 1, -1, 1, -1, -1, 1, 1, -1, 1, 1, -1, 1, -1, -1, -1, 1, 1, -1, -1, -1, -1, 1, 1, -1, -1, -1, -1, -1, 1, -1, -1, 1, -1, -1, 1, 1, -1, 1, -1, -1, -1, 1, 1, -1, -1, 1, -1, 1, 1, -1, 1, -1, 1, -1, 1, 1, -1, 1, 1, -1, 1, 1, -1, -1, -1, -1, -1, 1, -1, -1, 1, -1, 1, -1, 1, -1, -1, -1, 1, -1, -1, -1, -1, -1, -1, -1, 1, 1, -1, 1, -1, -1, -1, 1, -1, -1, -1, 1, -1, 1, -1, -1, -1, -1, -1, 1, 1, -1, -1, 1, -1, -1, 1, 1, -1, 1, -1, -1, 1, 1, -1, -1, -1, 1, -1, 1, 1, -1, 1, -1, -1, -1, 1, -1, -1, 1, 1, -1, 1, 1, -1, -1, -1, -1, -1, 1, -1, -1, -1, 1, -1, -1, 1, -1, 1, -1, -1, -1, 1, -1, 1, -1, -1, 1, 1, 1, -1, -1, -1, -1, -1, 1, -1, -1, 1, -1, 1, 1, 1, -1, -1, -1, -1, -1, 1, 1, 1, -1, -1, 1, -1, 1, 1, -1, 1, -1, -1, -1, 1, -1, 1, 1, 1, -1, 1, 1, -1, 1, -1, -1, -1, 1, -1, -1, -1, 1, -1, 1, -1, -1, 1, -1, -1, 1, 1, -1, 1, 1, 1, -1, 1, -1, -1, 1, -1, -1, 1, 1, -1, 1, -1, 1, 1, -1, -1, 1, -1, -1, -1, 1, 1, 1, 1, 1, -1, 1, 1, -1, 1, 1, -1, 1, -1, 1, -1, 1, 1, -1, 1, 1, -1, 1, -1, -1, 1, 1, 1, 1, 1, 1, -1, 1, 1, -1, -1, -1, -1, -1, 1, 1, -1, 1, -1, -1, 1, 1, -1, -1, 1, -1, 1, 1, 1, 1, 1, 1, -1, -1, 1, -1, -1, 1, 1, -1, 1, 1, -1, 1, 1, -1, 1, -1, -1, -1, -1, 1, 1, 1, 1, 1, 1, 1, -1, 1, 1, -1, -1, 1, 1, -1, 1, 1, -1, 1, 1, 1, 1, 1, -1, -1, -1, 1, -1, 1, 1, 1, 1, 1, 1, -1, 1, -1, -1, 1, -1, 1, 1, 1, 1, 1, 1, 1, 1, 1, -1, -1, -1, 1, 1, 1, 1, -1, 1, 1, -1, 1, 1, -1, -1, -1, 1, 1, 1, 1, 1, 1, 1, 1, 1, -1, -1, -1, -1, 1, 1, 1, 1, -1, 1, 1, -1, 1, 1, -1, -1, 1, -1, 1, 1, 1, -1, 1, 1, 1, 1, 1, -1, -1, -1, 1, 1, 1, 1, 1, 1, 1, -1, 1, -1, -1, -1, 1, 1, 1, 1, -1, 1, 1, 1, -1, 1, 1, -1, -1, 1, 1, 1, 1, 1, 1, -1, 1, 1, 1, -1, -1, 1, 1, 1, 1, 1, -1, 1, -1, 1, -1, 1, -1, 1, -1, 1, -1, 1, -1, 1, 1, -1, 1, 1, 1, 1, -1, 1, 1, 1, 1, 1, 1, 1, -1, 1, -1, 1, 1, -1, -1, 1, -1, 1, 1, 1, 1, 1, -1, 1, 1, -1, -1, -1, -1, 1, 1, 1, 1, 1, 1, -1, -1, -1, 1, -1, -1, -1, 1, 1, 1, -1, 1, -1, -1, -1, 1, 1, -1, -1, -1, 1, 1, 1, 1, 1, 1, -1, 1, 1, -1, -1, -1, 1, -1, 1, -1, 1, 1, -1, 1, -1, -1, 1, -1, -1, 1, 1, -1, 1, -1, -1, 1, -1, 1, -1, 1, -1, -1, 1, 1, -1, 1, -1, 1, 1, -1, 1, 1, -1, -1, 1, 1, -1, 1, -1, 1, -1, 1, -1, -1, 1, 1, -1, 1, 1, 1, 1, -1, -1, 1, 1, 1, -1, 1, 1, 1, -1, 1, -1, 1, -1, 1, 1, -1, 1, -1, -1, -1, -1, -1, 1, -1, 1, -1, 1, -1, 1, 1, -1, -1, -1, 1, -1, 1, -1, 1, -1, 1, 1, -1, 1, -1, -1, -1, -1, 1, -1, 1, 1, -1, 1, 1, -1, 1, -1, 1, -1, -1, -1, -1, -1, 1, -1, 1, 1, -1, 1, -1, -1, 1, -1, 1, -1, 1, 1, 1, 1, 1, -1, 1, -1, -1, -1, -1, 1, -1, -1, 1, -1, 1, 1, -1, 1, -1, -1, -1, 1, -1, 1, 1, 1, -1, 1, -1, 1, 1, -1, -1, -1, -1, -1, 1, -1, 1, 1, 1, 1, -1, 1, -1, -1, -1, -1, -1, -1, 1, 1, 1, 1, -1, 1, -1, -1, -1, -1, 1, -1, 1, 1, 1, -1, 1, 1, -1, 1, -1, -1, -1, -1, 1, -1, 1, 1, 1, 1, 1, -1, 1, -1, 1, -1, -1, -1, -1, 1, 1, 1, 1, -1, -1, 1, -1, -1, -1, -1, 1, -1, 1, 1, 1, 1, -1, -1, 1, -1, 1, -1, -1, -1, 1, 1, 1, 1, -1, -1, 1, -1, -1, -1, -1, -1, 1, -1, 1, 1, 1, -1, -1, 1, -1, -1, -1, 1, -1, -1, -1, 1, 1, 1, 1, 1, -1, -1, -1, -1, -1, -1, -1, -1, 1, 1, 1, 1, -1, -1, -1, 1, -1, 1, -1, -1, 1, -1, 1, 1, -1, -1, 1, -1, -1, -1, -1, 1, 1, -1, 1, -1, 1, 1, -1, 1, -1, 1, -1, -1, 1, -1, 1, 1, 1, -1, 1, -1, -1, -1, 1, -1, -1, 1, -1, -1, 1, 1, 1, -1, -1, 1, 1, 1, -1, -1, 1, -1, 1, 1, -1, 1, 1, -1, -1, -1, 1, -1, -1, 1, 1, -1, 1, 1, 1, -1, -1, -1, 1, 1, -1, -1, -1, 1, -1, 1, 1, 1, 1, -1, 1, -1, 1, -1, 1, -1, 1, 1, 1, -1, 1, -1, -1, -1, -1, 1, -1, -1, 1, 1, -1, 1, -1, 1, -1, -1, -1, -1, 1, -1, -1, -1, 1, 1, 1, -1, 1, -1, -1, -1, 1, -1, 1, -1, -1, 1, 1, 1, -1, 1, 1, -1, -1, 1, 1, -1, -1, 1, 1, 1, 1, 1, -1, -1, -1, -1, 1, 1, -1, -1, 1, 1, -1, 1, 1, -1, -1, -1, -1, 1, -1, -1, -1, 1, -1, 1, 1, -1, -1, 1, -1, 1, -1, 1, -1, 1, 1, 1, -1, -1, -1, -1, 1, 1, -1, 1, -1, -1, 1, 1, 1, 1, -1, -1, -1, 1, 1, 1, 1, 1, -1, 1, 1, 1, 1, -1, 1, -1, 1, 1, 1, 1, -1, -1, 1, 1, -1, -1, 1, -1, -1, -1, 1, 1, -1, 1, -1, 1, 1, 1, 1, -1, -1, -1, -1, 1, 1, 1, 1, -1, 1, 1, -1, 1, -1, -1, -1, -1, 1, 1, 1, -1, -1, 1, 1, 1, 1, 1, -1, -1, 1, 1, 1, 1, 1, -1, -1, 1, 1, -1, 1, -1, 1, -1, 1, 1, 1, 1, -1, 1, 1, -1, 1, 1, -1, -1, -1, 1, 1, 1, -1, -1, -1, 1, -1, 1, 1, -1, -1, -1, 1, 1, 1, -1, 1, 1, 1, -1, 1, 1, 1, 1, -1, 1, 1, 1, -1, -1, 1, -1, 1, 1, -1, 1, -1, -1, 1, 1, -1, -1, 1, 1, -1, 1, -1, -1, -1, 1, -1, 1, 1, -1, -1, 1, -1, 1, 1, 1, 1, -1, -1, -1, 1, -1, -1, -1, 1, 1, -1, 1, -1, 1, -1, -1, 1, 1, 1, 1, -1, -1, 1, 1, -1, 1, -1, -1, -1, 1, -1, 1, -1, 1, 1, -1, -1, -1, 1, 1, 1, -1, 1, 1, 1, 1, -1, -1, 1, 1, -1, 1, 1, -1, -1, 1, -1, 1, -1, -1, 1, -1, 1, 1, -1, 1, -1, 1, 1, 1, 1, 1, 1, -1, 1, -1, -1, 1, 1, 1, -1, 1, -1, 1, 1, -1, -1, 1, 1, -1, 1, -1, 1, -1, 1, -1, 1, 1, -1, 1, -1, 1, 1, -1, 1, -1, -1, 1, -1, 1, 1, 1, -1, 1, -1, 1, 1, 1, 1, -1, 1, 1, 1, 1, -1, 1, -1, 1, -1, 1, -1, -1, -1, 1, 1, 1, 1, 1, 1, 1, 1, 1, -1, 1, 1, -1, -1, 1, 1, 1, 1, -1, 1, 1, 1, 1, -1, -1, -1, -1, 1, 1, 1, -1, 1, 1, 1, 1, -1, 1, -1, 1, 1, -1, 1, 1, -1, 1, -1, 1, 1, -1, -1, -1, -1, 1, -1, 1, 1, 1, 1, 1, 1, 1, -1, 1, 1, -1, 1, -1, 1, 1, 1, 1, -1, 1, 1, 1, -1, 1, -1, -1, -1, 1, 1, -1, 1, 1, 1, 1, 1, -1, -1, -1, 1, -1, 1, 1, -1, 1, 1, 1, 1, -1, -1, 1, 1, 1, 1, 1, 1, -1, 1, 1, 1, 1, 1, -1, -1, -1, -1, -1, -1, 1, -1, 1, 1, 1, 1, 1, -1, 1, 1, 1, -1, 1, 1, -1, 1, 1, -1, 1, -1, 1, -1, -1, -1, -1, -1, 1, -1, -1, 1, 1, 1, 1, -1, -1, -1, -1, -1, -1, -1, 1, 1, 1, -1, 1, -1, -1, -1, 1, -1, -1, -1, -1, 1, -1, 1, -1, 1, -1, -1, -1, 1, -1, -1, -1, 1, -1, -1, -1, -1, 1, 1, -1, -1, 1, -1, -1, -1, 1, -1, 1, -1, 1, 1, -1, 1, -1, -1, -1, -1, 1, 1, -1, 1, -1, 1, 1, -1, -1, 1, 1, -1, -1, 1, -1, -1, 1, 1, 1, 1, -1, -1, 1, 1, -1, -1, 1, -1, -1, -1, 1, -1, 1, -1, 1, 1, 1, -1, -1, -1, 1, -1, -1, 1, -1, 1, -1, -1, -1, -1, -1, -1, 1, 1, 1, -1, 1, -1, 1, -1, 1, -1, 1, 1, -1, 1, 1, -1, 1, 1, 1, 1, 1, -1, 1, 1, 1, -1, 1, 1, 1, -1, -1, 1, 1, -1, 1, 1, 1, -1, -1, 1, -1, 1, -1, 1, 1, 1, -1, 1, 1, 1, -1, 1, 1, -1, -1, 1, 1, 1, 1, -1, -1, 1, 1, 1, -1, 1, 1, 1, 1, 1, 1, 1, -1, 1, 1, 1, -1, 1, 1, -1, 1, -1, 1, -1, 1, -1, 1, 1, 1, -1, -1, 1, -1, 1, -1, 1, -1, 1, -1, 1, 1, 1, 1, 1, 1, -1, -1, 1, -1, 1, 1, -1, 1, -1, 1, 1, 1, 1, 1, 1, -1, -1, 1, -1, -1, -1, 1, 1, -1, 1, 1, 1, 1, 1, -1, 1, 1, -1, -1, 1, -1, -1, 1, 1, 1, 1, -1, -1, 1, -1, -1, -1, -1, 1, -1, 1, -1, 1, 1, -1, 1, 1, 1, -1, -1, -1, 1, 1, -1, -1, 1, 1, -1, 1, -1, -1, 1, -1, -1, -1, -1, 1, -1, 1, 1, 1, -1, 1, -1, -1, -1, -1, -1, 1, -1, -1, 1, -1, 1, -1, -1, 1, -1, -1, -1, -1, 1, 1, 1, 1, -1, -1, -1, 1, -1, -1, -1, -1, -1, 1, -1, -1, 1, -1, 1, -1, 1, 1, -1, -1, -1, 1, 1, 1, -1, -1, 1, -1, 1, -1, 1, -1, -1, -1, 1, -1, -1, 1, -1, 1, -1, 1, -1, -1, 1, -1, 1, -1, 1, 1, -1, -1, 1, -1, 1, 1, -1, -1, -1, 1, -1, 1, -1, 1, -1, 1, 1, -1, 1, -1, -1, -1, 1, 1, -1, -1, -1, -1, -1, 1, 1, -1, 1, -1, -1, 1, -1, 1, 1, -1, -1, -1, 1, 1, 1, 1, -1, -1, 1, 1, -1, -1, -1, -1, -1, 1, 1, 1, -1, -1, -1, 1, 1, -1, 1, -1, -1, -1, 1, 1, -1, 1, -1, -1, 1, 1, -1, -1, -1, -1, -1, 1, -1, 1, -1, 1, -1, 1, 1, 1, -1, -1, -1, -1, 1, 1, -1, 1, -1, -1, -1, -1, 1, -1, 1, -1, 1, 1, 1, -1, 1, -1, 1, -1, 1, 1, -1, -1, -1, -1, 1, 1, 1, 1, 1, -1, 1, 1, 1, 1, -1, -1, -1, 1, -1, -1, 1, -1, -1, -1, 1, 1, -1, -1, -1, 1, 1, -1, -1, 1, -1, -1, -1, 1, 1, -1, -1, -1, -1, 1, 1, -1, 1, -1, -1, -1, 1, 1, 1, -1, -1, -1, 1, 1, 1, 1, -1, 1, -1, 1, -1, 1, -1, 1, -1, 1, 1, -1, 1, -1, -1, 1, 1, 1, -1, 1, -1, 1, 1, -1, 1, 1, -1, -1, 1, -1, 1, -1, -1, 1, 1, 1, -1, -1, 1, -1, -1, -1, 1, 1, 1, 1, 1, -1, 1, -1, 1, 1, -1, -1, -1, -1, 1, 1, 1, 1, 1, 1, 1, 1, 1, 1, -1, -1, -1, 1, -1, 1, -1, 1, -1, 1, 1, -1, 1, -1, 1, 1, 1, 1, 1, 1, 1, 1, -1, 1, 1, 1, 1, -1, -1, 1, 1, 1, 1, 1, 1, -1, 1, 1, -1, -1, 1, -1, 1, 1, 1, -1, 1, 1, 1, 1, -1, 1, -1, 1, -1, 1, 1, 1, 1, -1, 1, 1, 1, -1, 1, -1, -1, 1, 1, 1, 1, -1, 1, 1, 1, 1, 1, 1, -1, -1, -1, 1, 1, 1, 1, 1, 1, 1, 1, 1, -1, -1, -1, -1, 1, 1, 1, 1, -1, 1, 1, 1, 1, 1, 1, -1, -1, -1, 1, 1, 1, 1, 1, 1, 1, 1, 1, -1, -1, -1, -1, 1, 1, 1, 1, 1, 1, 1, 1, -1, -1, 1, -1, -1, 1, 1, 1, 1, 1, 1, -1, 1, -1, -1, 1, -1, 1, 1, 1, 1, -1, 1, 1, 1, 1, 1, -1, -1, 1, 1, 1, 1, -1, 1, 1, 1, -1, -1, 1, -1, 1, 1, -1, 1, -1, 1, 1, 1, -1, 1, -1, -1, -1, 1, 1, -1, 1, 1, -1, 1, 1, -1, -1, 1, -1, -1, 1, 1, -1, -1, 1, 1, 1, 1, -1, 1, -1, 1, -1, 1, -1, 1, 1, 1, 1, -1, 1, 1, 1, -1, -1, -1, 1, 1, 1, -1, 1, -1, -1, 1, 1, -1, 1, -1, -1, 1, 1, -1, -1, 1, -1, 1, 1, 1, -1, -1, -1, -1, 1, 1, 1, -1, 1, 1, 1, 1, 1, -1, 1, -1, -1, -1, 1, 1, 1, 1, 1, -1, 1, 1, -1, -1, -1, -1, -1, -1, 1, 1, -1, 1, 1, 1, 1, -1, 1, -1, 1, -1, 1, 1, 1, -1, 1, 1, 1, 1, -1, -1, 1, -1, -1, 1, 1, 1, -1, 1, -1, 1, 1, -1, 1, -1, -1, 1, 1, 1, -1, 1, -1, 1, 1, 1, -1, -1, -1, -1, 1, 1, -1, 1, 1, 1, 1, -1, -1, -1, -1, -1, -1, 1, 1, -1, -1, 1, 1, -1, -1, -1, 1, 1, -1, -1, 1, 1, -1, 1, 1, 1, 1, 1, -1, -1, -1, 1, 1, -1, 1, 1, 1, -1, 1, 1, -1, -1, 1, -1, -1, -1, 1, 1, -1, -1, 1, 1, -1, 1, -1, 1, -1, -1, -1, -1, -1, 1, 1, -1, -1, 1, -1, 1, 1, -1, 1, -1, 1, -1, 1, -1, 1, 1, 1, -1, -1, -1, 1, 1, -1, -1, 1, 1, 1, -1, 1, 1, -1, -1, -1, 1, 1, -1, -1, -1, 1, 1, -1, 1, -1, 1, -1, 1, -1, -1, 1, -1, 1, 1, 1, 1, 1, 1, -1, -1, 1, -1, 1, -1, -1, -1, 1, 1, -1, 1, -1, -1, -1, 1, -1, 1, -1, -1, 1, 1, -1, 1, -1, 1, -1, 1, -1, 1, 1, -1, -1, -1, 1, 1, 1, -1, -1, -1, 1, -1, 1, 1, -1, -1, 1, 1, -1, -1, -1, 1, -1, 1, -1, -1, 1, -1, 1, 1, 1, -1, 1, 1, 1, -1, -1, 1, 1, 1, -1, -1, 1, 1, 1, -1, 1, 1, 1, 1, 1, -1, 1, 1, -1, 1, 1, 1, 1, 1, 1, -1, 1, -1, -1, 1, -1, 1, 1, 1, 1, -1, 1, 1, -1, -1, 1, -1, 1, 1, -1, 1, 1, -1, -1, 1, 1, -1, -1, -1, -1, 1, 1, -1, -1, 1, 1, -1, 1, 1, -1, 1, -1, -1, 1, 1, -1, 1, 1, 1, -1, 1, 1, 1, 1, -1, -1, -1, 1, -1, 1, 1, 1, -1, -1, 1, 1, -1, -1, -1, -1, 1, 1, 1, 1, 1, -1, -1, 1, -1, -1, 1, -1, -1, 1, 1, 1, 1, -1, -1, 1, 1, -1, 1, -1, 1, 1, -1, 1, 1, 1, 1, -1, 1, 1, -1, -1, -1, -1, 1, 1, 1, 1, 1, -1, 1, 1, 1, 1, -1, 1, -1, -1, 1, 1, 1, 1, -1, 1, -1, 1, -1, 1, -1, -1, -1, 1, 1, 1, 1, -1, -1, 1, 1, 1, -1, 1, -1, -1, 1, 1, 1, 1, 1, -1, -1, 1, -1, 1, 1, -1, -1, 1, 1, 1, 1, -1, -1, -1, 1, 1, -1, 1, -1, -1, 1, -1, -1, 1, -1, -1, -1, 1, -1, -1, -1, -1, -1, 1, 1, -1, 1, -1, -1, -1, -1, 1, -1, -1, -1, -1, 1, 1, 1, 1, -1, -1, -1, -1, 1, -1, 1, 1, -1, 1, -1, 1, 1, -1, -1, 1, -1, -1, -1, -1, 1, -1, 1, 1, -1, 1, 1, -1, 1, -1, -1, 1, -1, -1, -1, 1, -1, -1, -1, -1, -1, -1, -1, 1, -1, -1, -1, -1, 1, 1, -1, 1, -1, -1, -1, 1, -1, 1, -1, -1, -1, 1, -1, -1, -1, -1, -1, 1, 1, -1, 1, 1, -1, -1, 1, -1, -1, -1, -1, -1, 1, -1, -1, -1, 1, -1, -1, 1, -1, -1, 1, -1, -1, 1, -1, -1, 1, -1, 1, -1, 1, -1, -1, -1, -1, 1, 1, -1, -1, 1, -1, 1, -1, -1, 1, 1, -1, 1, -1, 1, -1, -1, 1, -1, -1, -1, 1, 1, -1, -1, -1, -1, -1, -1, -1, 1, -1, 1, -1, -1, 1, -1, -1, 1, -1, 1, -1, -1, 1, 1, 1, 1, -1, -1, -1, -1, -1, -1, 1, -1, -1, 1, 1, -1, -1, 1, -1, 1, 1, -1, -1, -1, -1, -1, 1, -1, 1, -1, 1, 1, -1, -1, -1, -1, -1, -1, 1, -1, 1, -1, -1, 1, -1, -1, -1, -1, -1, -1, -1, 1, 1, -1, 1, 1, -1, 1, 1, -1, -1, -1, -1, -1, 1, -1, -1, 1, -1, 1, 1, 1, -1, -1, -1, -1, -1, 1, -1, 1, 1, -1, 1, 1, 1, -1, -1, -1, -1, -1, 1, 1, -1, 1, -1, 1, -1, 1, -1, -1, -1, -1, -1, 1, 1, -1, 1, -1, 1, 1, 1, -1, -1, 1, -1, -1, 1, 1, -1, 1, 1, 1, -1, 1, 1, -1, 1, -1, -1, -1, 1, -1, 1, -1, 1, 1, 1, 1, -1, 1, -1, -1, 1, 1, -1, 1, 1, 1, 1, -1, 1, -1, -1, -1, -1, -1, 1, -1, 1, -1, 1, 1, 1, 1, -1, -1, 1, -1, -1, 1, -1, 1, -1, 1, 1, 1, -1, -1, -1, 1, -1, -1, 1, -1, -1, 1, 1, 1, 1, 1, -1, -1, 1, -1, -1, 1, 1, 1, 1, 1, 1, 1, -1, 1, -1, 1, -1, 1, -1, 1, 1, 1, 1, -1, 1, 1, 1, 1, 1, -1, 1, -1, -1, 1, 1, 1, -1, 1, 1, 1, -1, 1, -1, 1, 1, 1, 1, 1, -1, 1, 1, 1, -1, 1, 1, -1, 1, 1, 1, -1, 1, 1, -1, 1, 1, 1, -1, 1, -1, -1, 1, -1, 1, 1, 1, -1, 1, 1, -1, -1, 1, -1, -1, 1, 1, -1, -1, 1, 1, 1, -1, 1, -1, 1, -1, -1, 1, -1, 1, 1, -1, 1, 1, 1, 1, -1, 1, 1, 1, 1, 1, -1, -1, 1, -1, -1, 1, -1, 1, -1, -1, 1, 1, 1, 1, 1, -1, 1, 1, -1, -1, 1, -1, -1, 1, 1, 1, 1, -1, -1, -1, 1, -1, -1, 1, -1, 1, 1, 1, 1, 1, 1, -1, -1, 1, -1, 1, -1, 1, -1, 1, 1, 1, 1, -1, -1, 1, -1, 1, -1, 1, -1, 1, 1, 1, 1, 1, -1, -1, 1, -1, -1, 1, -1, 1, 1, 1, 1, -1, 1, -1, 1, 1, -1, 1, -1, -1, -1, 1, -1, 1, 1, -1, 1, -1, 1, -1, -1, 1, -1, 1, -1, 1, 1, -1, 1, -1, -1, 1, -1, -1, -1, -1, 1, 1, -1, 1, -1, 1, -1, -1, -1, 1, -1, -1, 1, 1, 1, 1, 1, 1, -1, 1, 1, 1, -1, -1, 1, 1, 1, -1, 1, -1, -1, -1, -1, -1, 1, -1, 1, -1, -1, 1, -1, 1, 1, 1, 1, -1, -1, 1, -1, -1, 1, -1, 1, -1, 1, 1, 1, -1, -1, 1, 1, -1, -1, 1, -1, -1, -1, 1, 1, 1, 1, -1, 1, 1, -1, -1, 1, -1, 1, -1, 1, 1, 1, -1, -1, -1, 1, -1, 1, -1, 1, -1, 1, 1, -1
BQP_DATA, 4046, 18831, -9114.000000, -11300.000000, -25514.000000, -27700.000000, 8192.001713, 10173, 2267
